262 5
10 10 10 10 10 

0 0 0 0 0 0 1 2 
0 0 0 0 0 0 4 3 4 11 12 
2 0 1 0 0 0 2 10 5 
10 0 9 0 0 0 2 9 6 
5 0 5 0 0 0 1 6 
4 0 3 0 0 0 1 7 
1 0 3 0 0 0 1 8 
5 0 8 0 0 0 1 13 
10 0 6 0 0 0 1 13 
1 0 5 0 0 0 1 13 
4 0 4 0 0 0 1 13 
3 0 6 0 0 0 1 13 
0 0 0 0 0 0 1 14 
0 0 0 0 0 0 1 15 
1 0 0 0 3 0 3 19 17 16 
6 0 0 0 4 0 3 24 23 20 
7 0 0 0 4 0 1 18 
8 0 0 0 5 0 2 22 20 
2 0 0 0 4 0 1 20 
1 0 0 0 2 0 1 21 
2 0 0 0 5 0 1 25 
8 0 0 0 4 0 1 25 
7 0 0 0 10 0 1 25 
1 0 0 0 9 0 1 25 
0 0 0 0 0 0 3 26 58 90 
0 0 0 0 0 0 7 27 51 52 53 54 55 56 
3 1 1 1 0 0 2 50 28 
9 10 3 5 0 0 3 49 48 29 
10 6 3 4 0 0 1 30 
5 2 5 5 0 0 2 47 31 
9 4 6 7 0 0 1 32 
6 9 5 6 0 0 2 46 33 
2 2 4 6 0 0 3 45 44 34 
3 4 7 6 0 0 1 35 
10 8 4 5 0 0 1 36 
5 8 2 5 0 0 3 43 42 37 
10 4 4 6 0 0 1 38 
6 9 7 5 0 0 1 39 
1 5 10 7 0 0 1 40 
9 6 8 3 0 0 1 41 
3 5 3 3 0 0 1 57 
6 2 3 3 0 0 1 57 
3 3 6 6 0 0 1 57 
3 3 6 5 0 0 1 57 
3 4 6 9 0 0 1 57 
2 3 5 6 0 0 1 57 
6 5 3 3 0 0 1 57 
7 7 7 6 0 0 1 57 
7 1 2 4 0 0 1 57 
9 8 7 4 0 0 1 57 
7 3 3 8 0 0 1 57 
5 6 5 7 0 0 1 57 
4 5 3 3 0 0 2 57 123 
2 7 9 5 0 0 1 57 
9 4 7 6 0 0 1 57 
9 6 6 1 0 0 1 57 
0 0 0 0 0 0 1 262 
0 0 0 0 0 0 3 59 60 72 
4 2 0 0 1 1 2 78 61 
4 6 0 0 6 6 2 78 61 
10 7 0 0 4 10 2 65 62 
1 2 0 0 5 3 2 68 63 
7 5 0 0 6 6 2 79 64 
5 10 0 0 4 3 2 75 66 
5 5 0 0 5 2 2 68 67 
2 6 0 0 2 9 1 67 
2 7 0 0 5 7 3 83 74 69 
4 5 0 0 4 2 3 83 80 70 
2 3 0 0 3 6 2 80 70 
6 4 0 0 6 4 1 71 
2 3 0 0 7 4 1 73 
8 5 0 0 6 6 1 73 
9 5 0 0 3 5 2 87 76 
1 4 0 0 7 4 2 87 76 
10 7 0 0 7 4 4 88 87 82 77 
7 7 0 0 4 9 3 88 82 77 
10 7 0 0 4 10 3 86 85 81 
2 5 0 0 6 6 3 86 85 81 
7 5 0 0 9 4 2 85 84 
9 4 0 0 4 4 1 81 
10 3 0 0 4 4 1 84 
7 4 0 0 6 5 1 85 
8 3 0 0 7 2 2 87 220 
6 6 0 0 1 7 1 89 
1 6 0 0 4 6 1 89 
2 5 0 0 9 3 1 89 
9 5 0 0 5 4 1 89 
1 4 0 0 6 4 1 89 
0 0 0 0 0 0 1 262 
0 0 0 0 0 0 3 91 95 100 
8 1 0 0 0 0 2 99 92 
2 4 0 0 0 0 2 97 93 
7 2 0 0 0 0 1 94 
4 2 0 0 0 0 1 96 
9 6 0 0 0 0 2 98 124 
9 6 0 0 0 0 1 101 
8 9 0 0 0 0 1 101 
4 8 0 0 0 0 1 101 
10 5 0 0 0 0 1 101 
8 7 0 0 0 0 1 101 
0 0 0 0 0 0 5 102 114 136 158 180 
0 0 0 0 0 0 1 103 
3 0 0 0 0 1 2 105 104 
9 0 0 0 0 6 2 107 106 
5 0 0 0 0 2 2 108 106 
9 0 0 0 0 6 2 112 109 
10 0 0 0 0 8 1 108 
9 0 0 0 0 4 3 112 111 110 
3 0 0 0 0 3 2 111 110 
8 0 0 0 0 9 1 113 
8 0 0 0 0 5 1 113 
8 0 0 0 0 6 1 113 
0 0 0 0 0 0 5 202 214 226 238 250 
0 0 0 0 0 0 1 115 
9 1 0 0 0 1 2 118 116 
7 3 0 0 0 4 1 117 
4 4 0 0 0 7 1 119 
6 3 0 0 0 6 1 119 
9 7 0 0 0 4 2 122 120 
8 9 0 0 0 4 3 134 126 121 
8 7 0 0 0 5 3 127 125 123 
6 4 0 0 0 7 3 127 125 124 
1 3 0 0 0 6 1 124 
9 4 0 0 0 3 3 132 131 128 
10 3 0 0 0 9 3 133 132 130 
2 7 0 0 0 3 2 131 130 
2 6 0 0 0 4 1 129 
6 4 0 0 0 6 1 130 
9 6 0 0 0 7 1 130 
5 8 0 0 0 5 1 135 
7 3 0 0 0 7 1 135 
2 3 0 0 0 5 1 135 
10 6 0 0 0 4 1 135 
3 9 0 0 0 3 1 135 
0 0 0 0 0 0 1 262 
0 0 0 0 0 0 3 137 139 156 
2 1 0 0 0 2 3 155 154 138 
9 5 0 0 0 4 4 153 152 151 140 
6 6 0 0 0 4 3 152 151 140 
7 4 0 0 0 3 3 150 149 141 
5 9 0 0 0 6 2 148 142 
5 6 0 0 0 3 1 143 
1 5 0 0 0 10 1 144 
8 6 0 0 0 4 1 145 
7 5 0 0 0 4 1 146 
4 4 0 0 0 8 1 147 
10 4 0 0 0 3 1 157 
10 8 0 0 0 2 1 157 
2 6 0 0 0 3 1 157 
1 6 0 0 0 7 1 157 
8 2 0 0 0 3 1 157 
6 5 0 0 0 6 1 157 
5 6 0 0 0 6 1 157 
6 5 0 0 0 8 1 157 
3 3 0 0 0 5 1 157 
6 4 0 0 0 9 1 157 
0 0 0 0 0 0 1 262 
0 0 0 0 0 0 9 159 162 172 173 174 175 176 177 178 
4 1 3 0 0 0 2 171 160 
3 3 4 0 0 0 1 161 
9 7 3 0 0 0 2 170 163 
1 7 6 0 0 0 1 163 
10 5 4 0 0 0 1 164 
1 7 10 0 0 0 1 165 
2 2 5 0 0 0 1 166 
7 5 2 0 0 0 1 167 
7 4 4 0 0 0 1 168 
8 1 5 0 0 0 1 169 
5 4 8 0 0 0 1 179 
9 7 4 0 0 0 1 179 
10 5 5 0 0 0 1 179 
5 4 7 0 0 0 1 179 
9 7 5 0 0 0 1 179 
6 6 5 0 0 0 1 179 
5 8 6 0 0 0 1 179 
7 4 3 0 0 0 1 179 
2 7 3 0 0 0 1 179 
9 6 8 0 0 0 1 179 
0 0 0 0 0 0 1 262 
0 0 0 0 0 0 1 181 
7 1 2 0 0 0 2 184 182 
9 4 5 0 0 0 1 183 
6 4 5 0 0 0 1 185 
2 5 6 0 0 0 1 185 
9 10 5 0 0 0 2 188 186 
3 5 5 0 0 0 4 200 199 192 187 
8 5 4 0 0 0 4 198 197 193 189 
7 5 4 0 0 0 5 198 197 196 194 192 
5 6 5 0 0 0 2 195 190 
2 5 6 0 0 0 2 196 191 
1 5 7 0 0 0 1 194 
5 7 2 0 0 0 1 195 
7 8 5 0 0 0 1 194 
6 6 5 0 0 0 1 201 
4 3 3 0 0 0 1 201 
4 3 10 0 0 0 1 201 
6 2 4 0 0 0 1 201 
2 8 7 0 0 0 1 201 
10 4 5 0 0 0 1 201 
8 4 5 0 0 0 1 201 
0 0 0 0 0 0 1 262 
0 0 0 0 0 0 4 203 205 206 212 
6 0 0 0 0 1 1 204 
5 0 0 0 0 7 3 211 210 207 
1 0 0 0 0 4 2 211 209 
8 0 0 0 0 7 2 210 209 
5 0 0 0 0 7 1 208 
4 0 0 0 0 5 1 209 
4 0 0 0 0 6 1 213 
6 0 0 0 0 4 1 213 
5 0 0 0 0 4 1 213 
8 0 0 0 0 5 1 213 
0 0 0 0 0 0 1 262 
0 0 0 0 0 0 3 215 216 217 
8 0 0 0 1 0 3 224 220 218 
6 0 0 0 5 0 2 224 218 
2 0 0 0 6 0 1 218 
2 0 0 0 5 0 2 222 219 
4 0 0 0 8 0 1 221 
3 0 0 0 3 0 1 221 
8 0 0 0 8 0 1 223 
7 0 0 0 6 0 1 223 
3 0 0 0 3 0 1 225 
5 0 0 0 5 0 1 225 
0 0 0 0 0 0 1 262 
0 0 0 0 0 0 1 227 
5 1 0 0 0 0 2 229 228 
1 3 0 0 0 0 2 231 230 
10 7 0 0 0 0 2 231 230 
2 5 0 0 0 0 3 235 233 232 
7 2 0 0 0 0 3 234 233 232 
7 7 0 0 0 0 1 236 
6 6 0 0 0 0 1 236 
1 7 0 0 0 0 1 236 
2 5 0 0 0 0 1 236 
2 7 0 0 0 0 1 237 
0 0 0 0 0 0 1 262 
0 0 0 0 0 0 4 239 246 247 248 
9 2 0 0 0 0 3 245 243 240 
7 8 0 0 0 0 1 241 
3 10 0 0 0 0 1 242 
3 4 0 0 0 0 1 244 
8 6 0 0 0 0 1 244 
4 3 0 0 0 0 1 249 
2 6 0 0 0 0 1 249 
5 4 0 0 0 0 1 249 
10 4 0 0 0 0 1 249 
4 3 0 0 0 0 1 249 
0 0 0 0 0 0 1 262 
0 0 0 0 0 0 4 251 253 256 260 
7 0 0 0 0 1 2 259 252 
8 0 0 0 0 5 2 257 254 
7 0 0 0 0 6 2 259 257 
2 0 0 0 0 10 1 255 
10 0 0 0 0 4 1 258 
4 0 0 0 0 5 1 257 
7 0 0 0 0 3 1 261 
1 0 0 0 0 6 1 261 
3 0 0 0 0 4 1 261 
8 0 0 0 0 6 1 261 
0 0 0 0 0 0 1 262 
0 0 0 0 0 0 0 
